clingo version 5.4.0
Reading from merger/Niklas/merge.lp ...
Solving...
Answer: 1
occurs(object(robot,5),action(move,(1,0)),1). occurs(object(robot,2),action(move,(0,1)),1). occurs(object(robot,1),action(move,(-1,0)),1). occurs(object(robot,1),action(move,(-1,0)),2). occurs(object(robot,2),action(move,(0,1)),2). occurs(object(robot,5),action(move,(1,0)),2). occurs(object(robot,5),action(move,(1,0)),3). occurs(object(robot,2),action(move,(0,1)),3). occurs(object(robot,1),action(move,(-1,0)),3). occurs(object(robot,1),action(move,(0,-1)),4). occurs(object(robot,2),action(move,(0,1)),4). occurs(object(robot,5),action(move,(1,0)),4). occurs(object(robot,5),action(move,(0,-1)),5). occurs(object(robot,2),action(move,(0,1)),5). occurs(object(robot,1),action(move,(-1,0)),5). occurs(object(robot,1),action(move,(-1,0)),6). occurs(object(robot,2),action(move,(0,1)),6). occurs(object(robot,5),action(move,(0,-1)),6). occurs(object(robot,5),action(move,(0,-1)),7). occurs(object(robot,2),action(move,(0,1)),7). occurs(object(robot,1),action(move,(-1,0)),7). occurs(object(robot,1),action(move,(-1,0)),8). occurs(object(robot,2),action(move,(1,0)),8). occurs(object(robot,5),action(move,(0,-1)),8). occurs(object(robot,5),action(move,(0,-1)),9). occurs(object(robot,2),action(move,(1,0)),9). occurs(object(robot,5),action(move,(0,-1)),10). occurs(object(robot,1),action(move,(0,0)),9). occurs(object(robot,1),action(move,(0,0)),10). occurs(object(robot,2),action(move,(0,0)),10). occurs(object(robot,3),action(move,(0,1)),1). occurs(object(robot,3),action(move,(0,1)),3). occurs(object(robot,3),action(move,(0,1)),4). occurs(object(robot,3),action(move,(0,-1)),5). occurs(object(robot,3),action(move,(0,1)),6). occurs(object(robot,3),action(move,(0,0)),7). occurs(object(robot,3),action(move,(0,-1)),8). occurs(object(robot,3),action(move,(-1,0)),9). occurs(object(robot,3),action(move,(0,0)),10). occurs(object(robot,4),action(move,(-1,0)),4). occurs(object(robot,4),action(move,(-1,0)),6). occurs(object(robot,4),action(move,(0,1)),5). occurs(object(robot,4),action(move,(0,-1)),7). occurs(object(robot,4),action(move,(-1,0)),9). occurs(object(robot,4),action(move,(0,-1)),8). occurs(object(robot,4),action(move,(-1,0)),10). occurs(object(robot,3),action(move,(0,1)),2). occurs(object(robot,4),action(move,(-1,0)),2). occurs(object(robot,4),action(move,(0,0)),1). occurs(object(robot,4),action(move,(0,-1)),3).
Optimization: 7
Answer: 2
occurs(object(robot,5),action(move,(1,0)),1). occurs(object(robot,2),action(move,(0,1)),1). occurs(object(robot,1),action(move,(-1,0)),1). occurs(object(robot,1),action(move,(-1,0)),2). occurs(object(robot,2),action(move,(0,1)),2). occurs(object(robot,5),action(move,(1,0)),2). occurs(object(robot,5),action(move,(1,0)),3). occurs(object(robot,2),action(move,(0,1)),3). occurs(object(robot,1),action(move,(-1,0)),3). occurs(object(robot,1),action(move,(0,-1)),4). occurs(object(robot,2),action(move,(0,1)),4). occurs(object(robot,5),action(move,(1,0)),4). occurs(object(robot,5),action(move,(0,-1)),5). occurs(object(robot,2),action(move,(0,1)),5). occurs(object(robot,1),action(move,(-1,0)),5). occurs(object(robot,1),action(move,(-1,0)),6). occurs(object(robot,2),action(move,(0,1)),6). occurs(object(robot,5),action(move,(0,-1)),6). occurs(object(robot,5),action(move,(0,-1)),7). occurs(object(robot,2),action(move,(0,1)),7). occurs(object(robot,1),action(move,(-1,0)),7). occurs(object(robot,1),action(move,(-1,0)),8). occurs(object(robot,2),action(move,(1,0)),8). occurs(object(robot,5),action(move,(0,-1)),8). occurs(object(robot,5),action(move,(0,-1)),9). occurs(object(robot,2),action(move,(1,0)),9). occurs(object(robot,5),action(move,(0,-1)),10). occurs(object(robot,1),action(move,(0,0)),9). occurs(object(robot,1),action(move,(0,0)),10). occurs(object(robot,2),action(move,(0,0)),10). occurs(object(robot,3),action(move,(0,1)),1). occurs(object(robot,4),action(move,(-1,0)),1). occurs(object(robot,3),action(move,(0,1)),3). occurs(object(robot,3),action(move,(0,1)),4). occurs(object(robot,3),action(move,(0,1)),5). occurs(object(robot,3),action(move,(0,0)),6). occurs(object(robot,3),action(move,(0,-1)),7). occurs(object(robot,3),action(move,(0,-1)),8). occurs(object(robot,3),action(move,(-1,0)),9). occurs(object(robot,3),action(move,(0,0)),10). occurs(object(robot,4),action(move,(-1,0)),3). occurs(object(robot,4),action(move,(-1,0)),5). occurs(object(robot,4),action(move,(0,0)),4). occurs(object(robot,4),action(move,(0,1)),6). occurs(object(robot,4),action(move,(0,-1)),7). occurs(object(robot,4),action(move,(-1,0)),9). occurs(object(robot,4),action(move,(0,-1)),8). occurs(object(robot,4),action(move,(-1,0)),10). occurs(object(robot,3),action(move,(0,1)),2). occurs(object(robot,4),action(move,(0,-1)),2).
Optimization: 6
Answer: 3
occurs(object(robot,5),action(move,(1,0)),1). occurs(object(robot,2),action(move,(0,1)),1). occurs(object(robot,1),action(move,(-1,0)),1). occurs(object(robot,1),action(move,(-1,0)),2). occurs(object(robot,2),action(move,(0,1)),2). occurs(object(robot,5),action(move,(1,0)),2). occurs(object(robot,5),action(move,(1,0)),3). occurs(object(robot,2),action(move,(0,1)),3). occurs(object(robot,1),action(move,(-1,0)),3). occurs(object(robot,1),action(move,(0,-1)),4). occurs(object(robot,2),action(move,(0,1)),4). occurs(object(robot,5),action(move,(1,0)),4). occurs(object(robot,5),action(move,(0,-1)),5). occurs(object(robot,2),action(move,(0,1)),5). occurs(object(robot,1),action(move,(-1,0)),5). occurs(object(robot,1),action(move,(-1,0)),6). occurs(object(robot,2),action(move,(0,1)),6). occurs(object(robot,5),action(move,(0,-1)),6). occurs(object(robot,5),action(move,(0,-1)),7). occurs(object(robot,2),action(move,(0,1)),7). occurs(object(robot,1),action(move,(-1,0)),7). occurs(object(robot,1),action(move,(-1,0)),8). occurs(object(robot,2),action(move,(1,0)),8). occurs(object(robot,5),action(move,(0,-1)),8). occurs(object(robot,5),action(move,(0,-1)),9). occurs(object(robot,2),action(move,(1,0)),9). occurs(object(robot,5),action(move,(0,-1)),10). occurs(object(robot,1),action(move,(0,0)),9). occurs(object(robot,1),action(move,(0,0)),10). occurs(object(robot,2),action(move,(0,0)),10). occurs(object(robot,3),action(move,(0,1)),1). occurs(object(robot,4),action(move,(-1,0)),1). occurs(object(robot,3),action(move,(0,1)),3). occurs(object(robot,3),action(move,(-1,0)),4). occurs(object(robot,3),action(move,(0,1)),5). occurs(object(robot,3),action(move,(0,0)),6). occurs(object(robot,3),action(move,(1,0)),7). occurs(object(robot,3),action(move,(-1,0)),8). occurs(object(robot,3),action(move,(0,0)),9). occurs(object(robot,3),action(move,(0,0)),10). occurs(object(robot,4),action(move,(-1,0)),3). occurs(object(robot,4),action(move,(0,-1)),4). occurs(object(robot,4),action(move,(0,-1)),5). occurs(object(robot,4),action(move,(-1,0)),6). occurs(object(robot,4),action(move,(-1,0)),7). occurs(object(robot,4),action(move,(0,0)),8). occurs(object(robot,4),action(move,(0,0)),9). occurs(object(robot,4),action(move,(0,0)),10). occurs(object(robot,4),action(move,(-1,0)),2). occurs(object(robot,3),action(move,(0,0)),2).
Optimization: 5
Answer: 4
occurs(object(robot,5),action(move,(1,0)),1). occurs(object(robot,2),action(move,(0,1)),1). occurs(object(robot,1),action(move,(-1,0)),1). occurs(object(robot,1),action(move,(-1,0)),2). occurs(object(robot,2),action(move,(0,1)),2). occurs(object(robot,5),action(move,(1,0)),2). occurs(object(robot,5),action(move,(1,0)),3). occurs(object(robot,2),action(move,(0,1)),3). occurs(object(robot,1),action(move,(-1,0)),3). occurs(object(robot,1),action(move,(0,-1)),4). occurs(object(robot,2),action(move,(0,1)),4). occurs(object(robot,5),action(move,(1,0)),4). occurs(object(robot,5),action(move,(0,-1)),5). occurs(object(robot,2),action(move,(0,1)),5). occurs(object(robot,1),action(move,(-1,0)),5). occurs(object(robot,1),action(move,(-1,0)),6). occurs(object(robot,2),action(move,(0,1)),6). occurs(object(robot,5),action(move,(0,-1)),6). occurs(object(robot,5),action(move,(0,-1)),7). occurs(object(robot,2),action(move,(0,1)),7). occurs(object(robot,1),action(move,(-1,0)),7). occurs(object(robot,1),action(move,(-1,0)),8). occurs(object(robot,2),action(move,(1,0)),8). occurs(object(robot,5),action(move,(0,-1)),8). occurs(object(robot,5),action(move,(0,-1)),9). occurs(object(robot,2),action(move,(1,0)),9). occurs(object(robot,5),action(move,(0,-1)),10). occurs(object(robot,1),action(move,(0,0)),9). occurs(object(robot,1),action(move,(0,0)),10). occurs(object(robot,2),action(move,(0,0)),10). occurs(object(robot,4),action(move,(-1,0)),1). occurs(object(robot,3),action(move,(0,1)),3). occurs(object(robot,3),action(move,(0,0)),4). occurs(object(robot,3),action(move,(0,1)),5). occurs(object(robot,3),action(move,(-1,0)),6). occurs(object(robot,3),action(move,(0,0)),7). occurs(object(robot,3),action(move,(0,0)),8). occurs(object(robot,3),action(move,(0,0)),9). occurs(object(robot,3),action(move,(0,0)),10). occurs(object(robot,4),action(move,(-1,0)),3). occurs(object(robot,4),action(move,(0,-1)),4). occurs(object(robot,4),action(move,(0,-1)),5). occurs(object(robot,4),action(move,(-1,0)),6). occurs(object(robot,4),action(move,(-1,0)),7). occurs(object(robot,4),action(move,(0,0)),8). occurs(object(robot,4),action(move,(0,0)),9). occurs(object(robot,4),action(move,(0,0)),10). occurs(object(robot,3),action(move,(0,1)),2). occurs(object(robot,4),action(move,(-1,0)),2). occurs(object(robot,3),action(move,(0,0)),1).
Optimization: 4
Answer: 5
occurs(object(robot,5),action(move,(1,0)),1). occurs(object(robot,2),action(move,(0,1)),1). occurs(object(robot,1),action(move,(-1,0)),1). occurs(object(robot,1),action(move,(-1,0)),2). occurs(object(robot,2),action(move,(0,1)),2). occurs(object(robot,5),action(move,(1,0)),2). occurs(object(robot,5),action(move,(1,0)),3). occurs(object(robot,2),action(move,(0,1)),3). occurs(object(robot,1),action(move,(-1,0)),3). occurs(object(robot,1),action(move,(0,-1)),4). occurs(object(robot,2),action(move,(0,1)),4). occurs(object(robot,5),action(move,(1,0)),4). occurs(object(robot,5),action(move,(0,-1)),5). occurs(object(robot,2),action(move,(0,1)),5). occurs(object(robot,1),action(move,(-1,0)),5). occurs(object(robot,1),action(move,(-1,0)),6). occurs(object(robot,2),action(move,(0,1)),6). occurs(object(robot,5),action(move,(0,-1)),6). occurs(object(robot,5),action(move,(0,-1)),7). occurs(object(robot,2),action(move,(0,1)),7). occurs(object(robot,1),action(move,(-1,0)),7). occurs(object(robot,1),action(move,(-1,0)),8). occurs(object(robot,2),action(move,(1,0)),8). occurs(object(robot,5),action(move,(0,-1)),8). occurs(object(robot,5),action(move,(0,-1)),9). occurs(object(robot,2),action(move,(1,0)),9). occurs(object(robot,5),action(move,(0,-1)),10). occurs(object(robot,1),action(move,(0,0)),9). occurs(object(robot,1),action(move,(0,0)),10). occurs(object(robot,2),action(move,(0,0)),10). occurs(object(robot,3),action(move,(0,1)),1). occurs(object(robot,4),action(move,(-1,0)),1). occurs(object(robot,3),action(move,(0,1)),3). occurs(object(robot,3),action(move,(0,0)),4). occurs(object(robot,3),action(move,(0,1)),5). occurs(object(robot,3),action(move,(-1,0)),6). occurs(object(robot,3),action(move,(0,0)),7). occurs(object(robot,3),action(move,(0,0)),8). occurs(object(robot,3),action(move,(0,0)),9). occurs(object(robot,3),action(move,(0,0)),10). occurs(object(robot,4),action(move,(-1,0)),3). occurs(object(robot,4),action(move,(0,-1)),4). occurs(object(robot,4),action(move,(0,-1)),5). occurs(object(robot,4),action(move,(-1,0)),6). occurs(object(robot,4),action(move,(-1,0)),7). occurs(object(robot,4),action(move,(0,0)),8). occurs(object(robot,4),action(move,(0,0)),9). occurs(object(robot,4),action(move,(0,0)),10). occurs(object(robot,4),action(move,(-1,0)),2). occurs(object(robot,3),action(move,(0,0)),2).
Optimization: 3
Answer: 6
occurs(object(robot,5),action(move,(1,0)),1). occurs(object(robot,2),action(move,(0,1)),1). occurs(object(robot,1),action(move,(-1,0)),1). occurs(object(robot,1),action(move,(-1,0)),2). occurs(object(robot,2),action(move,(0,1)),2). occurs(object(robot,5),action(move,(1,0)),2). occurs(object(robot,5),action(move,(1,0)),3). occurs(object(robot,2),action(move,(0,1)),3). occurs(object(robot,1),action(move,(-1,0)),3). occurs(object(robot,1),action(move,(0,-1)),4). occurs(object(robot,2),action(move,(0,1)),4). occurs(object(robot,5),action(move,(1,0)),4). occurs(object(robot,5),action(move,(0,-1)),5). occurs(object(robot,2),action(move,(0,1)),5). occurs(object(robot,1),action(move,(-1,0)),5). occurs(object(robot,1),action(move,(-1,0)),6). occurs(object(robot,2),action(move,(0,1)),6). occurs(object(robot,5),action(move,(0,-1)),6). occurs(object(robot,5),action(move,(0,-1)),7). occurs(object(robot,2),action(move,(0,1)),7). occurs(object(robot,1),action(move,(-1,0)),7). occurs(object(robot,1),action(move,(-1,0)),8). occurs(object(robot,2),action(move,(1,0)),8). occurs(object(robot,5),action(move,(0,-1)),8). occurs(object(robot,5),action(move,(0,-1)),9). occurs(object(robot,2),action(move,(1,0)),9). occurs(object(robot,5),action(move,(0,-1)),10). occurs(object(robot,1),action(move,(0,0)),9). occurs(object(robot,1),action(move,(0,0)),10). occurs(object(robot,2),action(move,(0,0)),10). occurs(object(robot,3),action(move,(0,1)),1). occurs(object(robot,4),action(move,(-1,0)),1). occurs(object(robot,3),action(move,(0,1)),3). occurs(object(robot,3),action(move,(0,1)),4). occurs(object(robot,3),action(move,(-1,0)),5). occurs(object(robot,3),action(move,(0,0)),6). occurs(object(robot,3),action(move,(0,0)),7). occurs(object(robot,3),action(move,(0,0)),8). occurs(object(robot,3),action(move,(0,0)),9). occurs(object(robot,3),action(move,(0,0)),10). occurs(object(robot,4),action(move,(-1,0)),3). occurs(object(robot,4),action(move,(0,-1)),4). occurs(object(robot,4),action(move,(0,-1)),5). occurs(object(robot,4),action(move,(-1,0)),6). occurs(object(robot,4),action(move,(-1,0)),7). occurs(object(robot,4),action(move,(0,0)),8). occurs(object(robot,4),action(move,(0,0)),9). occurs(object(robot,4),action(move,(0,0)),10). occurs(object(robot,4),action(move,(-1,0)),2). occurs(object(robot,3),action(move,(0,0)),2).
Optimization: 2
OPTIMUM FOUND

Models       : 6
  Optimum    : yes
Optimization : 2
Calls        : 1
Time         : 0.260s (Solving: 0.01s 1st Model: 0.00s Unsat: 0.00s)
CPU Time     : 0.229s
